
;this file is automatically generated: Tue Feb 23 13:38:00 CST 2021

;declarations generated

(declare-fun oclExcludes ( Int Int) Bool)
(declare-fun class11_Class11IntAttr3 ( Int) Int)
(declare-fun Cardinality ( Int) Int)
(declare-fun type_6a97182e_abc8_4ec9_bbae_01e9ae4b76d3_Class44 ( Int) Bool)
(declare-fun type_6a97182e_abc8_4ec9_bbae_01e9ae4b76d3_Class43 ( Int) Bool)
(declare-fun type_6a97182e_abc8_4ec9_bbae_01e9ae4b76d3_Class42 ( Int) Bool)
(declare-fun type_6a97182e_abc8_4ec9_bbae_01e9ae4b76d3_Class41 ( Int) Bool)
(declare-fun type_6a97182e_abc8_4ec9_bbae_01e9ae4b76d3_Class45 ( Int) Bool)
(declare-fun obj_cb28eab6_1f2e_4b03_9b26_d68cb832ea81 ( Int) Int)
(declare-fun oclSelect ( Int Bool) Int)
(declare-fun type_6a97182e_abc8_4ec9_bbae_01e9ae4b76d3_Class11 ( Int) Bool)
(declare-fun type_6a97182e_abc8_4ec9_bbae_01e9ae4b76d3_Class10 ( Int) Bool)
(declare-fun type_6a97182e_abc8_4ec9_bbae_01e9ae4b76d3_Class15 ( Int) Bool)
(declare-fun type_6a97182e_abc8_4ec9_bbae_01e9ae4b76d3_Class14 ( Int) Bool)
(declare-fun type_6a97182e_abc8_4ec9_bbae_01e9ae4b76d3_Class13 ( Int) Bool)
(declare-fun type_6a97182e_abc8_4ec9_bbae_01e9ae4b76d3_Class12 ( Int) Bool)
(declare-fun type_6a97182e_abc8_4ec9_bbae_01e9ae4b76d3_Class19 ( Int) Bool)
(declare-fun type_6a97182e_abc8_4ec9_bbae_01e9ae4b76d3_Class18 ( Int) Bool)
(declare-fun type_6a97182e_abc8_4ec9_bbae_01e9ae4b76d3_Class17 ( Int) Bool)
(declare-fun type_6a97182e_abc8_4ec9_bbae_01e9ae4b76d3_Class16 ( Int) Bool)
(declare-fun Enum0 ( Int) Int)
(declare-fun Enum1 ( Int) Int)
(declare-fun Enum2 ( Int) Int)
(declare-fun type_6a97182e_abc8_4ec9_bbae_01e9ae4b76d3_Class40 ( Int) Bool)
(declare-fun type_6a97182e_abc8_4ec9_bbae_01e9ae4b76d3_Class33 ( Int) Bool)
(declare-fun type_6a97182e_abc8_4ec9_bbae_01e9ae4b76d3_Class32 ( Int) Bool)
(declare-fun type_6a97182e_abc8_4ec9_bbae_01e9ae4b76d3_Class31 ( Int) Bool)
(declare-fun type_6a97182e_abc8_4ec9_bbae_01e9ae4b76d3_Class30 ( Int) Bool)
(declare-fun type_6a97182e_abc8_4ec9_bbae_01e9ae4b76d3_Class37 ( Int) Bool)
(declare-fun type_6a97182e_abc8_4ec9_bbae_01e9ae4b76d3_Class36 ( Int) Bool)
(declare-fun container_ ( Int) Int)
(declare-fun type_6a97182e_abc8_4ec9_bbae_01e9ae4b76d3_Class35 ( Int) Bool)
(declare-fun type_6a97182e_abc8_4ec9_bbae_01e9ae4b76d3_Class34 ( Int) Bool)
(declare-fun type_6a97182e_abc8_4ec9_bbae_01e9ae4b76d3_Class39 ( Int) Bool)
(declare-fun type_6a97182e_abc8_4ec9_bbae_01e9ae4b76d3_Class38 ( Int) Bool)
(declare-fun type_6a97182e_abc8_4ec9_bbae_01e9ae4b76d3_Class22 ( Int) Bool)
(declare-fun type_6a97182e_abc8_4ec9_bbae_01e9ae4b76d3_Class21 ( Int) Bool)
(declare-fun type_6a97182e_abc8_4ec9_bbae_01e9ae4b76d3_Class20 ( Int) Bool)
(declare-fun type_6a97182e_abc8_4ec9_bbae_01e9ae4b76d3_Class26 ( Int) Bool)
(declare-fun type_6a97182e_abc8_4ec9_bbae_01e9ae4b76d3_Class25 ( Int) Bool)
(declare-fun type_6a97182e_abc8_4ec9_bbae_01e9ae4b76d3_Class24 ( Int) Bool)
(declare-fun type_6a97182e_abc8_4ec9_bbae_01e9ae4b76d3_Class23 ( Int) Bool)
(declare-fun type_6a97182e_abc8_4ec9_bbae_01e9ae4b76d3_Class29 ( Int) Bool)
(declare-fun type_6a97182e_abc8_4ec9_bbae_01e9ae4b76d3_Class28 ( Int) Bool)
(declare-fun type_6a97182e_abc8_4ec9_bbae_01e9ae4b76d3_Class27 ( Int) Bool)
(declare-fun oclIncludes ( Int Int) Bool)
(declare-fun type_6a97182e_abc8_4ec9_bbae_01e9ae4b76d3_Class6 ( Int) Bool)
(declare-fun type_6a97182e_abc8_4ec9_bbae_01e9ae4b76d3_Class5 ( Int) Bool)
(declare-fun type_6a97182e_abc8_4ec9_bbae_01e9ae4b76d3_Class4 ( Int) Bool)
(declare-fun type_6a97182e_abc8_4ec9_bbae_01e9ae4b76d3_Class3 ( Int) Bool)
(declare-fun type_6a97182e_abc8_4ec9_bbae_01e9ae4b76d3_Class9 ( Int) Bool)
(declare-fun type_6a97182e_abc8_4ec9_bbae_01e9ae4b76d3_Class8 ( Int) Bool)
(declare-fun type_6a97182e_abc8_4ec9_bbae_01e9ae4b76d3_Class7 ( Int) Bool)
(declare-fun ObjAt ( Int Int) Int)
(declare-fun type_6a97182e_abc8_4ec9_bbae_01e9ae4b76d3_Class2 ( Int) Bool)
(declare-fun type_6a97182e_abc8_4ec9_bbae_01e9ae4b76d3_Class1 ( Int) Bool)
(declare-fun type_6a97182e_abc8_4ec9_bbae_01e9ae4b76d3_Class0 ( Int) Bool)

;formula(s) generated
(assert (! (forall ((v Int)) (=> ( type_6a97182e_abc8_4ec9_bbae_01e9ae4b76d3_Class11 v )  (> ( class11_Class11IntAttr3 ( obj_cb28eab6_1f2e_4b03_9b26_d68cb832ea81 v )  )  10))):named l0))
(assert (! (exists ((o Int)) (and (and (and ( type_6a97182e_abc8_4ec9_bbae_01e9ae4b76d3_Class0 ( obj_cb28eab6_1f2e_4b03_9b26_d68cb832ea81 o )  )  ( type_6a97182e_abc8_4ec9_bbae_01e9ae4b76d3_Class22 ( obj_cb28eab6_1f2e_4b03_9b26_d68cb832ea81 o )  ) ) ( type_6a97182e_abc8_4ec9_bbae_01e9ae4b76d3_Class35 ( obj_cb28eab6_1f2e_4b03_9b26_d68cb832ea81 o )  ) ) ( type_6a97182e_abc8_4ec9_bbae_01e9ae4b76d3_Class2 ( obj_cb28eab6_1f2e_4b03_9b26_d68cb832ea81 o )  ) )):named c0))
(assert (! (exists ((o Int)) ( type_6a97182e_abc8_4ec9_bbae_01e9ae4b76d3_Class1 ( obj_cb28eab6_1f2e_4b03_9b26_d68cb832ea81 o )  ) ):named c1))
(assert (! (exists ((o Int)) (and (and (and (and ( type_6a97182e_abc8_4ec9_bbae_01e9ae4b76d3_Class10 ( obj_cb28eab6_1f2e_4b03_9b26_d68cb832ea81 o )  )  ( type_6a97182e_abc8_4ec9_bbae_01e9ae4b76d3_Class16 ( obj_cb28eab6_1f2e_4b03_9b26_d68cb832ea81 o )  ) ) ( type_6a97182e_abc8_4ec9_bbae_01e9ae4b76d3_Class15 ( obj_cb28eab6_1f2e_4b03_9b26_d68cb832ea81 o )  ) ) ( type_6a97182e_abc8_4ec9_bbae_01e9ae4b76d3_Class41 ( obj_cb28eab6_1f2e_4b03_9b26_d68cb832ea81 o )  ) ) ( type_6a97182e_abc8_4ec9_bbae_01e9ae4b76d3_Class2 ( obj_cb28eab6_1f2e_4b03_9b26_d68cb832ea81 o )  ) )):named c2))
(assert (! (exists ((o Int)) ( type_6a97182e_abc8_4ec9_bbae_01e9ae4b76d3_Class11 ( obj_cb28eab6_1f2e_4b03_9b26_d68cb832ea81 o )  ) ):named c3))
(assert (! (exists ((o Int)) (and (and (and (and ( type_6a97182e_abc8_4ec9_bbae_01e9ae4b76d3_Class12 ( obj_cb28eab6_1f2e_4b03_9b26_d68cb832ea81 o )  )  ( type_6a97182e_abc8_4ec9_bbae_01e9ae4b76d3_Class22 ( obj_cb28eab6_1f2e_4b03_9b26_d68cb832ea81 o )  ) ) ( type_6a97182e_abc8_4ec9_bbae_01e9ae4b76d3_Class35 ( obj_cb28eab6_1f2e_4b03_9b26_d68cb832ea81 o )  ) ) ( type_6a97182e_abc8_4ec9_bbae_01e9ae4b76d3_Class0 ( obj_cb28eab6_1f2e_4b03_9b26_d68cb832ea81 o )  ) ) ( type_6a97182e_abc8_4ec9_bbae_01e9ae4b76d3_Class2 ( obj_cb28eab6_1f2e_4b03_9b26_d68cb832ea81 o )  ) )):named c4))
(assert (! (exists ((o Int)) (and (and (and ( type_6a97182e_abc8_4ec9_bbae_01e9ae4b76d3_Class13 ( obj_cb28eab6_1f2e_4b03_9b26_d68cb832ea81 o )  )  ( type_6a97182e_abc8_4ec9_bbae_01e9ae4b76d3_Class16 ( obj_cb28eab6_1f2e_4b03_9b26_d68cb832ea81 o )  ) ) ( type_6a97182e_abc8_4ec9_bbae_01e9ae4b76d3_Class15 ( obj_cb28eab6_1f2e_4b03_9b26_d68cb832ea81 o )  ) ) ( type_6a97182e_abc8_4ec9_bbae_01e9ae4b76d3_Class2 ( obj_cb28eab6_1f2e_4b03_9b26_d68cb832ea81 o )  ) )):named c5))
(assert (! (exists ((o Int)) (and (and (and (and (and (and (and ( type_6a97182e_abc8_4ec9_bbae_01e9ae4b76d3_Class14 ( obj_cb28eab6_1f2e_4b03_9b26_d68cb832ea81 o )  )  ( type_6a97182e_abc8_4ec9_bbae_01e9ae4b76d3_Class33 ( obj_cb28eab6_1f2e_4b03_9b26_d68cb832ea81 o )  ) ) ( type_6a97182e_abc8_4ec9_bbae_01e9ae4b76d3_Class13 ( obj_cb28eab6_1f2e_4b03_9b26_d68cb832ea81 o )  ) ) ( type_6a97182e_abc8_4ec9_bbae_01e9ae4b76d3_Class16 ( obj_cb28eab6_1f2e_4b03_9b26_d68cb832ea81 o )  ) ) ( type_6a97182e_abc8_4ec9_bbae_01e9ae4b76d3_Class15 ( obj_cb28eab6_1f2e_4b03_9b26_d68cb832ea81 o )  ) ) ( type_6a97182e_abc8_4ec9_bbae_01e9ae4b76d3_Class4 ( obj_cb28eab6_1f2e_4b03_9b26_d68cb832ea81 o )  ) ) ( type_6a97182e_abc8_4ec9_bbae_01e9ae4b76d3_Class41 ( obj_cb28eab6_1f2e_4b03_9b26_d68cb832ea81 o )  ) ) ( type_6a97182e_abc8_4ec9_bbae_01e9ae4b76d3_Class2 ( obj_cb28eab6_1f2e_4b03_9b26_d68cb832ea81 o )  ) )):named c6))
(assert (! (exists ((o Int)) (and ( type_6a97182e_abc8_4ec9_bbae_01e9ae4b76d3_Class15 ( obj_cb28eab6_1f2e_4b03_9b26_d68cb832ea81 o )  )  ( type_6a97182e_abc8_4ec9_bbae_01e9ae4b76d3_Class2 ( obj_cb28eab6_1f2e_4b03_9b26_d68cb832ea81 o )  ) )):named c7))
(assert (! (exists ((o Int)) (and (and ( type_6a97182e_abc8_4ec9_bbae_01e9ae4b76d3_Class16 ( obj_cb28eab6_1f2e_4b03_9b26_d68cb832ea81 o )  )  ( type_6a97182e_abc8_4ec9_bbae_01e9ae4b76d3_Class15 ( obj_cb28eab6_1f2e_4b03_9b26_d68cb832ea81 o )  ) ) ( type_6a97182e_abc8_4ec9_bbae_01e9ae4b76d3_Class2 ( obj_cb28eab6_1f2e_4b03_9b26_d68cb832ea81 o )  ) )):named c8))
(assert (! (exists ((o Int)) (and (and (and (and ( type_6a97182e_abc8_4ec9_bbae_01e9ae4b76d3_Class17 ( obj_cb28eab6_1f2e_4b03_9b26_d68cb832ea81 o )  )  ( type_6a97182e_abc8_4ec9_bbae_01e9ae4b76d3_Class24 ( obj_cb28eab6_1f2e_4b03_9b26_d68cb832ea81 o )  ) ) ( type_6a97182e_abc8_4ec9_bbae_01e9ae4b76d3_Class26 ( obj_cb28eab6_1f2e_4b03_9b26_d68cb832ea81 o )  ) ) ( type_6a97182e_abc8_4ec9_bbae_01e9ae4b76d3_Class32 ( obj_cb28eab6_1f2e_4b03_9b26_d68cb832ea81 o )  ) ) ( type_6a97182e_abc8_4ec9_bbae_01e9ae4b76d3_Class2 ( obj_cb28eab6_1f2e_4b03_9b26_d68cb832ea81 o )  ) )):named c9))
(assert (! (exists ((o Int)) ( type_6a97182e_abc8_4ec9_bbae_01e9ae4b76d3_Class18 ( obj_cb28eab6_1f2e_4b03_9b26_d68cb832ea81 o )  ) ):named c10))
(assert (! (exists ((o Int)) ( type_6a97182e_abc8_4ec9_bbae_01e9ae4b76d3_Class19 ( obj_cb28eab6_1f2e_4b03_9b26_d68cb832ea81 o )  ) ):named c11))
(assert (! (exists ((o Int)) ( type_6a97182e_abc8_4ec9_bbae_01e9ae4b76d3_Class2 ( obj_cb28eab6_1f2e_4b03_9b26_d68cb832ea81 o )  ) ):named c12))
(assert (! (exists ((o Int)) (and (and ( type_6a97182e_abc8_4ec9_bbae_01e9ae4b76d3_Class20 ( obj_cb28eab6_1f2e_4b03_9b26_d68cb832ea81 o )  )  ( type_6a97182e_abc8_4ec9_bbae_01e9ae4b76d3_Class21 ( obj_cb28eab6_1f2e_4b03_9b26_d68cb832ea81 o )  ) ) ( type_6a97182e_abc8_4ec9_bbae_01e9ae4b76d3_Class2 ( obj_cb28eab6_1f2e_4b03_9b26_d68cb832ea81 o )  ) )):named c13))
(assert (! (exists ((o Int)) (and ( type_6a97182e_abc8_4ec9_bbae_01e9ae4b76d3_Class21 ( obj_cb28eab6_1f2e_4b03_9b26_d68cb832ea81 o )  )  ( type_6a97182e_abc8_4ec9_bbae_01e9ae4b76d3_Class2 ( obj_cb28eab6_1f2e_4b03_9b26_d68cb832ea81 o )  ) )):named c14))
(assert (! (exists ((o Int)) (and (and ( type_6a97182e_abc8_4ec9_bbae_01e9ae4b76d3_Class22 ( obj_cb28eab6_1f2e_4b03_9b26_d68cb832ea81 o )  )  ( type_6a97182e_abc8_4ec9_bbae_01e9ae4b76d3_Class35 ( obj_cb28eab6_1f2e_4b03_9b26_d68cb832ea81 o )  ) ) ( type_6a97182e_abc8_4ec9_bbae_01e9ae4b76d3_Class2 ( obj_cb28eab6_1f2e_4b03_9b26_d68cb832ea81 o )  ) )):named c15))
(assert (! (exists ((o Int)) (and (and (and (and (and (and ( type_6a97182e_abc8_4ec9_bbae_01e9ae4b76d3_Class23 ( obj_cb28eab6_1f2e_4b03_9b26_d68cb832ea81 o )  )  ( type_6a97182e_abc8_4ec9_bbae_01e9ae4b76d3_Class12 ( obj_cb28eab6_1f2e_4b03_9b26_d68cb832ea81 o )  ) ) ( type_6a97182e_abc8_4ec9_bbae_01e9ae4b76d3_Class22 ( obj_cb28eab6_1f2e_4b03_9b26_d68cb832ea81 o )  ) ) ( type_6a97182e_abc8_4ec9_bbae_01e9ae4b76d3_Class25 ( obj_cb28eab6_1f2e_4b03_9b26_d68cb832ea81 o )  ) ) ( type_6a97182e_abc8_4ec9_bbae_01e9ae4b76d3_Class35 ( obj_cb28eab6_1f2e_4b03_9b26_d68cb832ea81 o )  ) ) ( type_6a97182e_abc8_4ec9_bbae_01e9ae4b76d3_Class0 ( obj_cb28eab6_1f2e_4b03_9b26_d68cb832ea81 o )  ) ) ( type_6a97182e_abc8_4ec9_bbae_01e9ae4b76d3_Class2 ( obj_cb28eab6_1f2e_4b03_9b26_d68cb832ea81 o )  ) )):named c16))
(assert (! (exists ((o Int)) (and (and (and ( type_6a97182e_abc8_4ec9_bbae_01e9ae4b76d3_Class24 ( obj_cb28eab6_1f2e_4b03_9b26_d68cb832ea81 o )  )  ( type_6a97182e_abc8_4ec9_bbae_01e9ae4b76d3_Class26 ( obj_cb28eab6_1f2e_4b03_9b26_d68cb832ea81 o )  ) ) ( type_6a97182e_abc8_4ec9_bbae_01e9ae4b76d3_Class32 ( obj_cb28eab6_1f2e_4b03_9b26_d68cb832ea81 o )  ) ) ( type_6a97182e_abc8_4ec9_bbae_01e9ae4b76d3_Class2 ( obj_cb28eab6_1f2e_4b03_9b26_d68cb832ea81 o )  ) )):named c17))
(assert (! (exists ((o Int)) (and (and (and (and (and ( type_6a97182e_abc8_4ec9_bbae_01e9ae4b76d3_Class25 ( obj_cb28eab6_1f2e_4b03_9b26_d68cb832ea81 o )  )  ( type_6a97182e_abc8_4ec9_bbae_01e9ae4b76d3_Class12 ( obj_cb28eab6_1f2e_4b03_9b26_d68cb832ea81 o )  ) ) ( type_6a97182e_abc8_4ec9_bbae_01e9ae4b76d3_Class22 ( obj_cb28eab6_1f2e_4b03_9b26_d68cb832ea81 o )  ) ) ( type_6a97182e_abc8_4ec9_bbae_01e9ae4b76d3_Class35 ( obj_cb28eab6_1f2e_4b03_9b26_d68cb832ea81 o )  ) ) ( type_6a97182e_abc8_4ec9_bbae_01e9ae4b76d3_Class0 ( obj_cb28eab6_1f2e_4b03_9b26_d68cb832ea81 o )  ) ) ( type_6a97182e_abc8_4ec9_bbae_01e9ae4b76d3_Class2 ( obj_cb28eab6_1f2e_4b03_9b26_d68cb832ea81 o )  ) )):named c18))
(assert (! (exists ((o Int)) (and (and ( type_6a97182e_abc8_4ec9_bbae_01e9ae4b76d3_Class26 ( obj_cb28eab6_1f2e_4b03_9b26_d68cb832ea81 o )  )  ( type_6a97182e_abc8_4ec9_bbae_01e9ae4b76d3_Class32 ( obj_cb28eab6_1f2e_4b03_9b26_d68cb832ea81 o )  ) ) ( type_6a97182e_abc8_4ec9_bbae_01e9ae4b76d3_Class2 ( obj_cb28eab6_1f2e_4b03_9b26_d68cb832ea81 o )  ) )):named c19))
(assert (! (exists ((o Int)) (and ( type_6a97182e_abc8_4ec9_bbae_01e9ae4b76d3_Class27 ( obj_cb28eab6_1f2e_4b03_9b26_d68cb832ea81 o )  )  ( type_6a97182e_abc8_4ec9_bbae_01e9ae4b76d3_Class2 ( obj_cb28eab6_1f2e_4b03_9b26_d68cb832ea81 o )  ) )):named c20))
(assert (! (exists ((o Int)) ( type_6a97182e_abc8_4ec9_bbae_01e9ae4b76d3_Class28 ( obj_cb28eab6_1f2e_4b03_9b26_d68cb832ea81 o )  ) ):named c21))
(assert (! (exists ((o Int)) ( type_6a97182e_abc8_4ec9_bbae_01e9ae4b76d3_Class29 ( obj_cb28eab6_1f2e_4b03_9b26_d68cb832ea81 o )  ) ):named c22))
(assert (! (exists ((o Int)) ( type_6a97182e_abc8_4ec9_bbae_01e9ae4b76d3_Class3 ( obj_cb28eab6_1f2e_4b03_9b26_d68cb832ea81 o )  ) ):named c23))
(assert (! (exists ((o Int)) (and ( type_6a97182e_abc8_4ec9_bbae_01e9ae4b76d3_Class30 ( obj_cb28eab6_1f2e_4b03_9b26_d68cb832ea81 o )  )  ( type_6a97182e_abc8_4ec9_bbae_01e9ae4b76d3_Class2 ( obj_cb28eab6_1f2e_4b03_9b26_d68cb832ea81 o )  ) )):named c24))
(assert (! (exists ((o Int)) (and (and (and (and ( type_6a97182e_abc8_4ec9_bbae_01e9ae4b76d3_Class31 ( obj_cb28eab6_1f2e_4b03_9b26_d68cb832ea81 o )  )  ( type_6a97182e_abc8_4ec9_bbae_01e9ae4b76d3_Class16 ( obj_cb28eab6_1f2e_4b03_9b26_d68cb832ea81 o )  ) ) ( type_6a97182e_abc8_4ec9_bbae_01e9ae4b76d3_Class15 ( obj_cb28eab6_1f2e_4b03_9b26_d68cb832ea81 o )  ) ) ( type_6a97182e_abc8_4ec9_bbae_01e9ae4b76d3_Class41 ( obj_cb28eab6_1f2e_4b03_9b26_d68cb832ea81 o )  ) ) ( type_6a97182e_abc8_4ec9_bbae_01e9ae4b76d3_Class2 ( obj_cb28eab6_1f2e_4b03_9b26_d68cb832ea81 o )  ) )):named c25))
(assert (! (exists ((o Int)) (and ( type_6a97182e_abc8_4ec9_bbae_01e9ae4b76d3_Class32 ( obj_cb28eab6_1f2e_4b03_9b26_d68cb832ea81 o )  )  ( type_6a97182e_abc8_4ec9_bbae_01e9ae4b76d3_Class2 ( obj_cb28eab6_1f2e_4b03_9b26_d68cb832ea81 o )  ) )):named c26))
(assert (! (exists ((o Int)) (and (and (and (and (and ( type_6a97182e_abc8_4ec9_bbae_01e9ae4b76d3_Class33 ( obj_cb28eab6_1f2e_4b03_9b26_d68cb832ea81 o )  )  ( type_6a97182e_abc8_4ec9_bbae_01e9ae4b76d3_Class13 ( obj_cb28eab6_1f2e_4b03_9b26_d68cb832ea81 o )  ) ) ( type_6a97182e_abc8_4ec9_bbae_01e9ae4b76d3_Class16 ( obj_cb28eab6_1f2e_4b03_9b26_d68cb832ea81 o )  ) ) ( type_6a97182e_abc8_4ec9_bbae_01e9ae4b76d3_Class15 ( obj_cb28eab6_1f2e_4b03_9b26_d68cb832ea81 o )  ) ) ( type_6a97182e_abc8_4ec9_bbae_01e9ae4b76d3_Class41 ( obj_cb28eab6_1f2e_4b03_9b26_d68cb832ea81 o )  ) ) ( type_6a97182e_abc8_4ec9_bbae_01e9ae4b76d3_Class2 ( obj_cb28eab6_1f2e_4b03_9b26_d68cb832ea81 o )  ) )):named c27))
(assert (! (exists ((o Int)) ( type_6a97182e_abc8_4ec9_bbae_01e9ae4b76d3_Class34 ( obj_cb28eab6_1f2e_4b03_9b26_d68cb832ea81 o )  ) ):named c28))
(assert (! (exists ((o Int)) (and ( type_6a97182e_abc8_4ec9_bbae_01e9ae4b76d3_Class35 ( obj_cb28eab6_1f2e_4b03_9b26_d68cb832ea81 o )  )  ( type_6a97182e_abc8_4ec9_bbae_01e9ae4b76d3_Class2 ( obj_cb28eab6_1f2e_4b03_9b26_d68cb832ea81 o )  ) )):named c29))
(assert (! (exists ((o Int)) ( type_6a97182e_abc8_4ec9_bbae_01e9ae4b76d3_Class36 ( obj_cb28eab6_1f2e_4b03_9b26_d68cb832ea81 o )  ) ):named c30))
(assert (! (exists ((o Int)) ( type_6a97182e_abc8_4ec9_bbae_01e9ae4b76d3_Class37 ( obj_cb28eab6_1f2e_4b03_9b26_d68cb832ea81 o )  ) ):named c31))
(assert (! (exists ((o Int)) (and ( type_6a97182e_abc8_4ec9_bbae_01e9ae4b76d3_Class38 ( obj_cb28eab6_1f2e_4b03_9b26_d68cb832ea81 o )  )  ( type_6a97182e_abc8_4ec9_bbae_01e9ae4b76d3_Class2 ( obj_cb28eab6_1f2e_4b03_9b26_d68cb832ea81 o )  ) )):named c32))
(assert (! (exists ((o Int)) ( type_6a97182e_abc8_4ec9_bbae_01e9ae4b76d3_Class39 ( obj_cb28eab6_1f2e_4b03_9b26_d68cb832ea81 o )  ) ):named c33))
(assert (! (exists ((o Int)) (and (and (and (and (and (and ( type_6a97182e_abc8_4ec9_bbae_01e9ae4b76d3_Class4 ( obj_cb28eab6_1f2e_4b03_9b26_d68cb832ea81 o )  )  ( type_6a97182e_abc8_4ec9_bbae_01e9ae4b76d3_Class33 ( obj_cb28eab6_1f2e_4b03_9b26_d68cb832ea81 o )  ) ) ( type_6a97182e_abc8_4ec9_bbae_01e9ae4b76d3_Class13 ( obj_cb28eab6_1f2e_4b03_9b26_d68cb832ea81 o )  ) ) ( type_6a97182e_abc8_4ec9_bbae_01e9ae4b76d3_Class16 ( obj_cb28eab6_1f2e_4b03_9b26_d68cb832ea81 o )  ) ) ( type_6a97182e_abc8_4ec9_bbae_01e9ae4b76d3_Class15 ( obj_cb28eab6_1f2e_4b03_9b26_d68cb832ea81 o )  ) ) ( type_6a97182e_abc8_4ec9_bbae_01e9ae4b76d3_Class41 ( obj_cb28eab6_1f2e_4b03_9b26_d68cb832ea81 o )  ) ) ( type_6a97182e_abc8_4ec9_bbae_01e9ae4b76d3_Class2 ( obj_cb28eab6_1f2e_4b03_9b26_d68cb832ea81 o )  ) )):named c34))
(assert (! (exists ((o Int)) (and (and (and ( type_6a97182e_abc8_4ec9_bbae_01e9ae4b76d3_Class40 ( obj_cb28eab6_1f2e_4b03_9b26_d68cb832ea81 o )  )  ( type_6a97182e_abc8_4ec9_bbae_01e9ae4b76d3_Class21 ( obj_cb28eab6_1f2e_4b03_9b26_d68cb832ea81 o )  ) ) ( type_6a97182e_abc8_4ec9_bbae_01e9ae4b76d3_Class2 ( obj_cb28eab6_1f2e_4b03_9b26_d68cb832ea81 o )  ) ) ( type_6a97182e_abc8_4ec9_bbae_01e9ae4b76d3_Class20 ( obj_cb28eab6_1f2e_4b03_9b26_d68cb832ea81 o )  ) )):named c35))
(assert (! (exists ((o Int)) (and (and (and ( type_6a97182e_abc8_4ec9_bbae_01e9ae4b76d3_Class41 ( obj_cb28eab6_1f2e_4b03_9b26_d68cb832ea81 o )  )  ( type_6a97182e_abc8_4ec9_bbae_01e9ae4b76d3_Class16 ( obj_cb28eab6_1f2e_4b03_9b26_d68cb832ea81 o )  ) ) ( type_6a97182e_abc8_4ec9_bbae_01e9ae4b76d3_Class15 ( obj_cb28eab6_1f2e_4b03_9b26_d68cb832ea81 o )  ) ) ( type_6a97182e_abc8_4ec9_bbae_01e9ae4b76d3_Class2 ( obj_cb28eab6_1f2e_4b03_9b26_d68cb832ea81 o )  ) )):named c36))
(assert (! (exists ((o Int)) (and (and (and ( type_6a97182e_abc8_4ec9_bbae_01e9ae4b76d3_Class42 ( obj_cb28eab6_1f2e_4b03_9b26_d68cb832ea81 o )  )  ( type_6a97182e_abc8_4ec9_bbae_01e9ae4b76d3_Class22 ( obj_cb28eab6_1f2e_4b03_9b26_d68cb832ea81 o )  ) ) ( type_6a97182e_abc8_4ec9_bbae_01e9ae4b76d3_Class35 ( obj_cb28eab6_1f2e_4b03_9b26_d68cb832ea81 o )  ) ) ( type_6a97182e_abc8_4ec9_bbae_01e9ae4b76d3_Class2 ( obj_cb28eab6_1f2e_4b03_9b26_d68cb832ea81 o )  ) )):named c37))
(assert (! (exists ((o Int)) ( type_6a97182e_abc8_4ec9_bbae_01e9ae4b76d3_Class43 ( obj_cb28eab6_1f2e_4b03_9b26_d68cb832ea81 o )  ) ):named c38))
(assert (! (exists ((o Int)) (and (and (and (and (and (and ( type_6a97182e_abc8_4ec9_bbae_01e9ae4b76d3_Class44 ( obj_cb28eab6_1f2e_4b03_9b26_d68cb832ea81 o )  )  ( type_6a97182e_abc8_4ec9_bbae_01e9ae4b76d3_Class33 ( obj_cb28eab6_1f2e_4b03_9b26_d68cb832ea81 o )  ) ) ( type_6a97182e_abc8_4ec9_bbae_01e9ae4b76d3_Class13 ( obj_cb28eab6_1f2e_4b03_9b26_d68cb832ea81 o )  ) ) ( type_6a97182e_abc8_4ec9_bbae_01e9ae4b76d3_Class16 ( obj_cb28eab6_1f2e_4b03_9b26_d68cb832ea81 o )  ) ) ( type_6a97182e_abc8_4ec9_bbae_01e9ae4b76d3_Class15 ( obj_cb28eab6_1f2e_4b03_9b26_d68cb832ea81 o )  ) ) ( type_6a97182e_abc8_4ec9_bbae_01e9ae4b76d3_Class41 ( obj_cb28eab6_1f2e_4b03_9b26_d68cb832ea81 o )  ) ) ( type_6a97182e_abc8_4ec9_bbae_01e9ae4b76d3_Class2 ( obj_cb28eab6_1f2e_4b03_9b26_d68cb832ea81 o )  ) )):named c39))
(assert (! (exists ((o Int)) ( type_6a97182e_abc8_4ec9_bbae_01e9ae4b76d3_Class45 ( obj_cb28eab6_1f2e_4b03_9b26_d68cb832ea81 o )  ) ):named c40))
(assert (! (exists ((o Int)) ( type_6a97182e_abc8_4ec9_bbae_01e9ae4b76d3_Class5 ( obj_cb28eab6_1f2e_4b03_9b26_d68cb832ea81 o )  ) ):named c41))
(assert (! (exists ((o Int)) (and (and (and (and ( type_6a97182e_abc8_4ec9_bbae_01e9ae4b76d3_Class6 ( obj_cb28eab6_1f2e_4b03_9b26_d68cb832ea81 o )  )  ( type_6a97182e_abc8_4ec9_bbae_01e9ae4b76d3_Class22 ( obj_cb28eab6_1f2e_4b03_9b26_d68cb832ea81 o )  ) ) ( type_6a97182e_abc8_4ec9_bbae_01e9ae4b76d3_Class35 ( obj_cb28eab6_1f2e_4b03_9b26_d68cb832ea81 o )  ) ) ( type_6a97182e_abc8_4ec9_bbae_01e9ae4b76d3_Class2 ( obj_cb28eab6_1f2e_4b03_9b26_d68cb832ea81 o )  ) ) ( type_6a97182e_abc8_4ec9_bbae_01e9ae4b76d3_Class42 ( obj_cb28eab6_1f2e_4b03_9b26_d68cb832ea81 o )  ) )):named c42))
(assert (! (exists ((o Int)) ( type_6a97182e_abc8_4ec9_bbae_01e9ae4b76d3_Class7 ( obj_cb28eab6_1f2e_4b03_9b26_d68cb832ea81 o )  ) ):named c43))
(assert (! (exists ((o Int)) (and (and (and (and (and ( type_6a97182e_abc8_4ec9_bbae_01e9ae4b76d3_Class8 ( obj_cb28eab6_1f2e_4b03_9b26_d68cb832ea81 o )  )  ( type_6a97182e_abc8_4ec9_bbae_01e9ae4b76d3_Class16 ( obj_cb28eab6_1f2e_4b03_9b26_d68cb832ea81 o )  ) ) ( type_6a97182e_abc8_4ec9_bbae_01e9ae4b76d3_Class15 ( obj_cb28eab6_1f2e_4b03_9b26_d68cb832ea81 o )  ) ) ( type_6a97182e_abc8_4ec9_bbae_01e9ae4b76d3_Class41 ( obj_cb28eab6_1f2e_4b03_9b26_d68cb832ea81 o )  ) ) ( type_6a97182e_abc8_4ec9_bbae_01e9ae4b76d3_Class10 ( obj_cb28eab6_1f2e_4b03_9b26_d68cb832ea81 o )  ) ) ( type_6a97182e_abc8_4ec9_bbae_01e9ae4b76d3_Class2 ( obj_cb28eab6_1f2e_4b03_9b26_d68cb832ea81 o )  ) )):named c44))
(assert (! (exists ((o Int)) (and (and (and (and (and (and (and ( type_6a97182e_abc8_4ec9_bbae_01e9ae4b76d3_Class9 ( obj_cb28eab6_1f2e_4b03_9b26_d68cb832ea81 o )  )  ( type_6a97182e_abc8_4ec9_bbae_01e9ae4b76d3_Class22 ( obj_cb28eab6_1f2e_4b03_9b26_d68cb832ea81 o )  ) ) ( type_6a97182e_abc8_4ec9_bbae_01e9ae4b76d3_Class35 ( obj_cb28eab6_1f2e_4b03_9b26_d68cb832ea81 o )  ) ) ( type_6a97182e_abc8_4ec9_bbae_01e9ae4b76d3_Class16 ( obj_cb28eab6_1f2e_4b03_9b26_d68cb832ea81 o )  ) ) ( type_6a97182e_abc8_4ec9_bbae_01e9ae4b76d3_Class15 ( obj_cb28eab6_1f2e_4b03_9b26_d68cb832ea81 o )  ) ) ( type_6a97182e_abc8_4ec9_bbae_01e9ae4b76d3_Class0 ( obj_cb28eab6_1f2e_4b03_9b26_d68cb832ea81 o )  ) ) ( type_6a97182e_abc8_4ec9_bbae_01e9ae4b76d3_Class41 ( obj_cb28eab6_1f2e_4b03_9b26_d68cb832ea81 o )  ) ) ( type_6a97182e_abc8_4ec9_bbae_01e9ae4b76d3_Class2 ( obj_cb28eab6_1f2e_4b03_9b26_d68cb832ea81 o )  ) )):named c45))

 ;end of formula 